Version identifier: 22.1.1.0 | 2022-11-28 | 9160aff4d
CPXPARAM_ClockType                               1
CPXPARAM_Read_DataCheck                          1
CPXPARAM_Threads                                 1
CPXPARAM_TimeLimit                               7200
CPXPARAM_MIP_Tolerances_AbsMIPGap                0
CPXPARAM_MIP_Tolerances_MIPGap                   0
CPXPARAM_MIP_Tolerances_Integrality              0
Tried aggregator 4 times.
MIP Presolve eliminated 437323 rows and 15222 columns.
MIP Presolve modified 800 coefficients.
Aggregator did 6057 substitutions.
Reduced MIP has 20896 rows, 15471 columns, and 99361 nonzeros.
Reduced MIP has 15471 binaries, 0 generals, 0 SOSs, and 0 indicators.
Presolve time = 1.09 sec. (564.57 ticks)
Probing time = 0.08 sec. (14.87 ticks)
Tried aggregator 1 time.
Detecting symmetries...
MIP Presolve eliminated 28 rows and 0 columns.
MIP Presolve modified 258 coefficients.
Reduced MIP has 20868 rows, 15471 columns, and 98946 nonzeros.
Reduced MIP has 15471 binaries, 0 generals, 0 SOSs, and 0 indicators.
Presolve time = 0.13 sec. (73.28 ticks)
Probing time = 0.07 sec. (13.85 ticks)
Clique table members: 55670.
MIP emphasis: balance optimality and feasibility.
MIP search method: dynamic search.
Parallel mode: none, using 1 thread.
Root relaxation solution time = 141.63 sec. (92608.41 ticks)

        Nodes                                         Cuts/
   Node  Left     Objective  IInf  Best Integer    Best Bound    ItCnt     Gap

      0     0     2984.0000  2972                   2984.0000    83016         
      0     0     2984.0000  3032                    Cuts: 71   165525         
      0     0     2984.0000  3369                   Cuts: 106   247733         
Heuristic still looking.
Heuristic still looking.
*     0+    0                            0.0000     2984.0000              --- 
Detecting symmetries...
      0     2     2984.0000  2754        0.0000     2984.0000   247733     --- 
Elapsed time = 688.91 sec. (465606.40 ticks, tree = 0.01 MB, solutions = 1)
      1     3     2984.0000  4503        0.0000     2984.0000   662820     --- 
      2     4     2984.0000  3463        0.0000     2984.0000   738125     --- 
      3     5     2984.0000  3946        0.0000     2984.0000   842906     --- 
      4     6     2984.0000  3851        0.0000     2984.0000   932264     --- 
      5     7     2984.0000  4448        0.0000     2984.0000  1139697     --- 
      6     8     2984.0000  4214        0.0000     2984.0000  1229724     --- 
      7     9     2984.0000  4773        0.0000     2984.0000  1444730     --- 
      8    10     2984.0000  4519        0.0000     2984.0000  1544389     --- 
      9    11     2984.0000  4577        0.0000     2984.0000  1650985     --- 
     10    12     2984.0000  4563        0.0000     2984.0000  1651344     --- 
Elapsed time = 3550.63 sec. (2188156.89 ticks, tree = 0.07 MB, solutions = 1)
     11    13     2984.0000  4574        0.0000     2984.0000  1745479     --- 
     12    14     2984.0000  4784        0.0000     2984.0000  1747819     --- 
     13    15     2984.0000  4597        0.0000     2984.0000  1749353     --- 
     14    16     2984.0000  5139        0.0000     2984.0000  1754193     --- 
     15    17     2984.0000  4629        0.0000     2984.0000  1857124     --- 
     16    18     2984.0000  4860        0.0000     2984.0000  1859673     --- 
     17    19     2983.0000  4632        0.0000     2984.0000  1958297     --- 
     18    20     2984.0000  4679        0.0000     2984.0000  1959506     --- 
     19    19    infeasible              0.0000     2984.0000  2366439     --- 
     20    20     2984.0000  4695        0.0000     2984.0000  2369552     --- 
Elapsed time = 4961.01 sec. (3100313.09 ticks, tree = 0.13 MB, solutions = 1)
     21    21     2984.0000  4732        0.0000     2984.0000  2475522     --- 
     22    22     2984.0000  5704        0.0000     2984.0000  2504883     --- 
     23    23     2984.0000  4764        0.0000     2984.0000  2617255     --- 
     24    24     2984.0000  4569        0.0000     2984.0000  2708949     --- 
     25    25     2984.0000  4538        0.0000     2984.0000  2806763     --- 

Implied bound cuts applied:  8
Zero-half cuts applied:  47

Root node processing (before b&c):
  Real time             =  688.29 sec. (465366.86 ticks)
Sequential b&c:
  Real time             = 6511.74 sec. (4107057.39 ticks)
                          ------------
Total (root+branch&cut) = 7200.03 sec. (4572424.25 ticks)
Solution is feasible.

---------------------
@@@ MIP_time_limit_feasible
>>> Benchmark mc2024_track1_150.cnf k 10 OPT 0 TimeCost 7578.77249288559 TimeSolve 7228.165408372879 TimeRead 0.07059240341186523 TimeTrans 350.5364921092987
